benchmarks/crosswords/mzn/crossword3_36.ozn
output ([(((("\n"++problem_name)++"\n")++"L:")++show(L))++"\n"]++[if problem[i,j]==0 then "*" else show(letters[fix(L[problem[i,j]])]) endif++if j==cols then "\n" else "" endif | i in 1..rows, j in 1..cols, ])++["\n"];
int: rows = 21;
int: cols = 21;
array [1..rows,1..cols] of int: problem = [|1,2,3,4,0,5,6,7,8,9,0,10,11,12,13,14,0,15,16,17,18|19,20,21,22,0,23,24,25,26,27,0,28,29,30,31,32,0,33,34,35,36|37,38,39,40,41,42,43,44,45,46,0,47,48,49,50,51,52,53,54,55,56|57,58,59,60,61,0,62,63,64,0,65,66,67,68,69,0,70,71,72,73,74|0,0,75,76,77,78,0,79,80,81,82,83,84,85,0,86,87,88,89,0,0|90,91,92,0,93,94,95,96,97,98,99,0,100,101,102,103,104,0,105,106,107|108,109,110,111,0,112,113,114,0,115,116,117,0,118,119,120,0,121,122,123,124|125,126,127,128,129,130,131,0,132,133,134,135,136,0,137,138,139,140,141,142,143|144,145,146,147,148,149,0,150,151,152,0,153,154,155,0,156,157,158,159,160,161|162,163,164,0,165,166,167,168,169,170,0,171,172,173,174,0,175,176,177,178,179|0,0,0,180,181,182,183,184,0,0,0,0,0,185,186,187,188,189,0,0,0|190,191,192,193,194,0,195,196,197,198,0,199,200,201,202,203,204,0,205,206,207|208,209,210,211,212,213,0,214,215,216,0,217,218,219,0,220,221,222,223,224,225|226,227,228,229,230,231,232,0,233,234,235,236,237,0,238,239,240,241,242,243,244|245,246,247,248,0,249,250,251,0,252,253,254,0,255,256,257,0,258,259,260,261|262,263,264,0,265,266,267,268,269,0,270,271,272,273,274,275,276,0,277,278,279|0,0,280,281,282,283,0,284,285,286,287,288,289,290,0,291,292,293,294,0,0|295,296,297,298,299,0,300,301,302,303,304,0,305,306,307,0,308,309,310,311,312|313,314,315,316,317,318,319,320,321,322,0,323,324,325,326,327,328,329,330,331,332|333,334,335,336,0,337,338,339,340,341,0,342,343,344,345,346,0,347,348,349,350|351,352,353,354,0,355,356,357,358,359,0,360,361,362,363,364,0,365,366,367,368|];
int: num_letters = 26;
array [1..num_letters] of string: letters = ["a","b","c","d","e","f","g","h","i","j","k","l","m","n","o","p","q","r","s","t","u","v","w","x","y","z"];
int: N = 368;
array [0..N] of int: L;
string: problem_name = "21.07, 21 x 21";
