benchmarks/crosswords/mzn/crossword3_36.res
REGULAR
REGULAR
REGULAR
REGULAR
REGULAR
REGULAR
REGULAR
REGULAR
REGULAR
REGULAR
REGULAR
REGULAR
REGULAR
REGULAR
REGULAR
REGULAR
REGULAR
REGULAR
REGULAR
REGULAR
REGULAR
REGULAR
REGULAR
REGULAR
REGULAR
REGULAR
REGULAR
REGULAR
REGULAR
REGULAR
REGULAR
REGULAR
REGULAR
REGULAR
REGULAR
REGULAR
REGULAR
REGULAR
REGULAR
REGULAR
REGULAR
REGULAR
REGULAR
REGULAR
REGULAR
REGULAR
REGULAR
REGULAR
REGULAR
REGULAR
REGULAR
REGULAR
REGULAR
REGULAR
REGULAR
REGULAR
REGULAR
REGULAR
REGULAR
REGULAR
REGULAR
REGULAR
REGULAR
REGULAR
REGULAR
REGULAR
REGULAR
REGULAR
REGULAR
REGULAR
REGULAR
REGULAR
REGULAR
REGULAR
REGULAR
REGULAR
REGULAR
REGULAR
REGULAR
REGULAR
REGULAR
REGULAR
REGULAR
REGULAR
REGULAR
REGULAR
REGULAR
REGULAR
REGULAR
REGULAR
REGULAR
REGULAR
REGULAR
REGULAR
REGULAR
REGULAR
REGULAR
REGULAR
REGULAR
REGULAR
REGULAR
REGULAR
REGULAR
REGULAR
REGULAR
REGULAR
REGULAR
REGULAR
REGULAR
REGULAR
REGULAR
REGULAR
REGULAR
REGULAR
REGULAR
REGULAR
REGULAR
REGULAR
REGULAR
REGULAR
REGULAR
REGULAR
REGULAR
REGULAR
REGULAR
REGULAR
REGULAR
REGULAR
REGULAR
REGULAR
REGULAR
REGULAR
REGULAR
REGULAR
REGULAR
REGULAR
REGULAR
REGULAR
REGULAR
REGULAR
REGULAR
REGULAR
REGULAR
REGULAR
REGULAR
REGULAR
REGULAR
REGULAR
REGULAR
REGULAR
REGULAR
REGULAR
L = array1d(0..368, [1, 4, 5, 7, 1, 5, 19, 14, 5, 4, 25, 4, 4, 1, 4, 1, 20, 1, 4, 9, 20, 14, 9, 18, 5, 23, 5, 8, 18, 5, 14, 9, 4, 20, 19, 5, 14, 12, 1, 9, 3, 14, 9, 22, 15, 18, 16, 5, 20, 1, 18, 15, 20, 3, 5, 12, 5, 19, 12, 18, 21, 8, 5, 20, 7, 5, 22, 9, 12, 1, 12, 5, 9, 16, 19, 5, 12, 1, 13, 4, 5, 11, 3, 1, 14, 11, 4, 15, 18, 20, 18, 1, 20, 8, 1, 25, 9, 12, 1, 1, 21, 1, 12, 5, 2, 1, 4, 1, 1, 14, 20, 5, 4, 1, 13, 18, 5, 6, 15, 1, 12, 19, 15, 1, 12, 7, 14, 9, 12, 9, 1, 2, 11, 15, 16, 1, 11, 16, 15, 18, 4, 18, 9, 1, 4, 5, 23, 1, 12, 3, 2, 1, 14, 5, 18, 1, 19, 15, 15, 8, 1, 25, 5, 8, 20, 5, 1, 20, 18, 15, 1, 4, 1, 3, 19, 14, 15, 20, 14, 1, 14, 1, 13, 14, 21, 18, 5, 11, 1, 6, 19, 5, 19, 15, 18, 1, 12, 1, 7, 20, 15, 9, 12, 12, 5, 19, 5, 25, 19, 19, 5, 19, 19, 1, 2, 9, 14, 12, 1, 3, 1, 12, 5, 20, 19, 5, 5, 14, 5, 12, 9, 2, 1, 20, 1, 18, 1, 13, 19, 23, 5, 8, 19, 1, 3, 18, 5, 4, 15, 21, 14, 7, 7, 1, 2, 14, 1, 20, 19, 9, 2, 9, 16, 19, 1, 20, 3, 1, 14, 5, 7, 15, 12, 1, 7, 1, 20, 13, 1, 4, 11, 1, 15, 19, 9, 26, 26, 21, 3, 1, 10, 3, 5, 24, 5, 19, 11, 3, 9, 18, 19, 12, 1, 5, 19, 4, 4, 1, 2, 1, 8, 5, 18, 20, 3, 9, 18, 20, 19, 9, 4, 5, 18, 7, 14, 9, 13, 9, 1, 12, 3, 3, 1, 9, 1, 8, 20, 18, 5, 4, 12, 5, 14, 1, 2, 1, 12, 5, 12, 1, 4, 19, 20, 3, 1, 13, 12, 1, 19, 16, 5, 19, 1, 18, 5, 18, 1, 6, 1]);
----------

%%  runtime:       20.459 (20459.206 ms)
%%  solvetime:     0.798 (798.403 ms)
%%  solutions:     1
%%  variables:     40454
%%  propagators:   51713
%%  propagations:  1232523
%%  nodes:         298
%%  failures:      83
%%  restarts:      0
%%  peak depth:    148

GECODE_TUPLESET_MEM
GECODE_TUPLESET_MEM
GECODE_TUPLESET_MEM
GECODE_TUPLESET_MEM
GECODE_TUPLESET_MEM
GECODE_TUPLESET_MEM
GECODE_TUPLESET_MEM
GECODE_TUPLESET_MEM
GECODE_TUPLESET_MEM
GECODE_TUPLESET_MEM
GECODE_TUPLESET_MEM
GECODE_TUPLESET_MEM
GECODE_TUPLESET_MEM
GECODE_TUPLESET_MEM
GECODE_TUPLESET_MEM
GECODE_TUPLESET_MEM
GECODE_TUPLESET_MEM
GECODE_TUPLESET_MEM
GECODE_TUPLESET_MEM
GECODE_TUPLESET_MEM
GECODE_TUPLESET_MEM
GECODE_TUPLESET_MEM
GECODE_TUPLESET_MEM
GECODE_TUPLESET_MEM
GECODE_TUPLESET_MEM
GECODE_TUPLESET_MEM
GECODE_TUPLESET_MEM
GECODE_TUPLESET_MEM
GECODE_TUPLESET_MEM
GECODE_TUPLESET_MEM
GECODE_TUPLESET_MEM
GECODE_TUPLESET_MEM
GECODE_TUPLESET_MEM
GECODE_TUPLESET_MEM
GECODE_TUPLESET_MEM
GECODE_TUPLESET_MEM
GECODE_TUPLESET_MEM
GECODE_TUPLESET_MEM
GECODE_TUPLESET_MEM
GECODE_TUPLESET_MEM
GECODE_TUPLESET_MEM
GECODE_TUPLESET_MEM
GECODE_TUPLESET_MEM
GECODE_TUPLESET_MEM
GECODE_TUPLESET_MEM
GECODE_TUPLESET_MEM
GECODE_TUPLESET_MEM
GECODE_TUPLESET_MEM
GECODE_TUPLESET_MEM
GECODE_TUPLESET_MEM
GECODE_TUPLESET_MEM
GECODE_TUPLESET_MEM
GECODE_TUPLESET_MEM
GECODE_TUPLESET_MEM
GECODE_TUPLESET_MEM
GECODE_TUPLESET_MEM
GECODE_TUPLESET_MEM
GECODE_TUPLESET_MEM
GECODE_TUPLESET_MEM
GECODE_TUPLESET_MEM
GECODE_TUPLESET_MEM
GECODE_TUPLESET_MEM
GECODE_TUPLESET_MEM
GECODE_TUPLESET_MEM
GECODE_TUPLESET_MEM
GECODE_TUPLESET_MEM
GECODE_TUPLESET_MEM
GECODE_TUPLESET_MEM
GECODE_TUPLESET_MEM
GECODE_TUPLESET_MEM
GECODE_TUPLESET_MEM
GECODE_TUPLESET_MEM
GECODE_TUPLESET_MEM
GECODE_TUPLESET_MEM
GECODE_TUPLESET_MEM
GECODE_TUPLESET_MEM
GECODE_TUPLESET_MEM
GECODE_TUPLESET_MEM
GECODE_TUPLESET_MEM
GECODE_TUPLESET_MEM
GECODE_TUPLESET_MEM
GECODE_TUPLESET_MEM
GECODE_TUPLESET_MEM
GECODE_TUPLESET_MEM
GECODE_TUPLESET_MEM
GECODE_TUPLESET_MEM
GECODE_TUPLESET_MEM
GECODE_TUPLESET_MEM
GECODE_TUPLESET_MEM
GECODE_TUPLESET_MEM
GECODE_TUPLESET_MEM
GECODE_TUPLESET_MEM
GECODE_TUPLESET_MEM
GECODE_TUPLESET_MEM
GECODE_TUPLESET_MEM
GECODE_TUPLESET_MEM
GECODE_TUPLESET_MEM
GECODE_TUPLESET_MEM
GECODE_TUPLESET_MEM
GECODE_TUPLESET_MEM
GECODE_TUPLESET_MEM
GECODE_TUPLESET_MEM
GECODE_TUPLESET_MEM
GECODE_TUPLESET_MEM
GECODE_TUPLESET_MEM
GECODE_TUPLESET_MEM
GECODE_TUPLESET_MEM
GECODE_TUPLESET_MEM
GECODE_TUPLESET_MEM
GECODE_TUPLESET_MEM
GECODE_TUPLESET_MEM
GECODE_TUPLESET_MEM
GECODE_TUPLESET_MEM
GECODE_TUPLESET_MEM
GECODE_TUPLESET_MEM
GECODE_TUPLESET_MEM
GECODE_TUPLESET_MEM
GECODE_TUPLESET_MEM
GECODE_TUPLESET_MEM
GECODE_TUPLESET_MEM
GECODE_TUPLESET_MEM
GECODE_TUPLESET_MEM
GECODE_TUPLESET_MEM
GECODE_TUPLESET_MEM
GECODE_TUPLESET_MEM
GECODE_TUPLESET_MEM
GECODE_TUPLESET_MEM
GECODE_TUPLESET_MEM
GECODE_TUPLESET_MEM
GECODE_TUPLESET_MEM
GECODE_TUPLESET_MEM
GECODE_TUPLESET_MEM
GECODE_TUPLESET_MEM
GECODE_TUPLESET_MEM
GECODE_TUPLESET_MEM
GECODE_TUPLESET_MEM
GECODE_TUPLESET_MEM
GECODE_TUPLESET_MEM
GECODE_TUPLESET_MEM
GECODE_TUPLESET_MEM
GECODE_TUPLESET_MEM
GECODE_TUPLESET_MEM
GECODE_TUPLESET_MEM
GECODE_TUPLESET_MEM
GECODE_TUPLESET_MEM
GECODE_TUPLESET_MEM
GECODE_TUPLESET_MEM
GECODE_TUPLESET_MEM
GECODE_TUPLESET_MEM
GECODE_TUPLESET_MEM
GECODE_TUPLESET_MEM
GECODE_TUPLESET_MEM
L = array1d(0..368, [1, 19, 1, 1, 2, 20, 1, 13, 18, 1, 7, 1, 18, 2, 15, 14, 5, 19, 20, 15, 14, 3, 5, 1, 8, 5, 1, 4, 21, 18, 9, 1, 8, 9, 19, 12, 5, 3, 15, 3, 8, 1, 2, 1, 13, 2, 1, 12, 1, 14, 4, 13, 1, 19, 19, 5, 19, 11, 14, 5, 1, 4, 2, 15, 2, 13, 1, 18, 7, 5, 19, 5, 5, 4, 19, 19, 14, 1, 7, 9, 12, 12, 5, 7, 1, 12, 19, 8, 9, 14, 1, 4, 19, 18, 5, 20, 18, 5, 1, 4, 20, 5, 16, 5, 5, 20, 1, 14, 18, 1, 9, 4, 8, 1, 19, 18, 1, 7, 20, 1, 7, 6, 9, 18, 5, 15, 18, 2, 9, 20, 5, 4, 15, 7, 12, 5, 4, 16, 18, 5, 12, 1, 20, 5, 13, 3, 12, 5, 1, 14, 6, 9, 5, 14, 1, 13, 5, 25, 5, 12, 9, 4, 1, 25, 5, 7, 14, 1, 18, 12, 19, 1, 2, 2, 25, 5, 1, 19, 5, 19, 11, 1, 1, 2, 1, 9, 1, 13, 2, 19, 13, 15, 4, 1, 12, 5, 9, 18, 5, 13, 5, 14, 11, 1, 18, 8, 5, 16, 9, 3, 5, 2, 15, 24, 12, 1, 7, 1, 12, 9, 14, 15, 13, 1, 4, 19, 4, 5, 12, 21, 7, 5, 4, 13, 15, 20, 9, 6, 15, 14, 23, 1, 18, 4, 19, 7, 1, 5, 12, 14, 1, 2, 19, 1, 13, 1, 3, 5, 5, 4, 9, 20, 5, 14, 7, 20, 9, 4, 1, 12, 13, 1, 5, 19, 20, 18, 9, 8, 5, 19, 1, 18, 5, 1, 12, 1, 13, 5, 14, 20, 19, 19, 1, 7, 5, 6, 1, 20, 1, 12, 5, 1, 20, 5, 18, 3, 8, 5, 7, 12, 1, 4, 5, 5, 16, 9, 7, 12, 15, 20, 20, 9, 19, 18, 8, 15, 13, 2, 15, 9, 4, 5, 19, 4, 9, 14, 1, 1, 14, 15, 14, 19, 3, 5, 12, 9, 1, 4, 5, 5, 16, 19, 1, 7, 19, 20, 1, 14, 19, 25, 1, 4, 5, 12, 1, 5, 4, 4, 25]);
----------

%%  runtime:       3.007 (3007.353 ms)
%%  solvetime:     1.213 (1213.765 ms)
%%  solutions:     1
%%  variables:     40454
%%  propagators:   51713
%%  propagations:  1925436
%%  nodes:         534
%%  failures:      197
%%  restarts:      0
%%  peak depth:    164

GECODE_TUPLESET_SPEED
GECODE_TUPLESET_SPEED
GECODE_TUPLESET_SPEED
GECODE_TUPLESET_SPEED
GECODE_TUPLESET_SPEED
GECODE_TUPLESET_SPEED
GECODE_TUPLESET_SPEED
GECODE_TUPLESET_SPEED
GECODE_TUPLESET_SPEED
GECODE_TUPLESET_SPEED
GECODE_TUPLESET_SPEED
GECODE_TUPLESET_SPEED
GECODE_TUPLESET_SPEED
GECODE_TUPLESET_SPEED
GECODE_TUPLESET_SPEED
GECODE_TUPLESET_SPEED
GECODE_TUPLESET_SPEED
GECODE_TUPLESET_SPEED
GECODE_TUPLESET_SPEED
GECODE_TUPLESET_SPEED
GECODE_TUPLESET_SPEED
GECODE_TUPLESET_SPEED
GECODE_TUPLESET_SPEED
GECODE_TUPLESET_SPEED
GECODE_TUPLESET_SPEED
GECODE_TUPLESET_SPEED
GECODE_TUPLESET_SPEED
GECODE_TUPLESET_SPEED
GECODE_TUPLESET_SPEED
GECODE_TUPLESET_SPEED
GECODE_TUPLESET_SPEED
GECODE_TUPLESET_SPEED
GECODE_TUPLESET_SPEED
GECODE_TUPLESET_SPEED
GECODE_TUPLESET_SPEED
GECODE_TUPLESET_SPEED
GECODE_TUPLESET_SPEED
GECODE_TUPLESET_SPEED
GECODE_TUPLESET_SPEED
GECODE_TUPLESET_SPEED
GECODE_TUPLESET_SPEED
GECODE_TUPLESET_SPEED
GECODE_TUPLESET_SPEED
GECODE_TUPLESET_SPEED
GECODE_TUPLESET_SPEED
GECODE_TUPLESET_SPEED
GECODE_TUPLESET_SPEED
GECODE_TUPLESET_SPEED
GECODE_TUPLESET_SPEED
GECODE_TUPLESET_SPEED
GECODE_TUPLESET_SPEED
GECODE_TUPLESET_SPEED
GECODE_TUPLESET_SPEED
GECODE_TUPLESET_SPEED
GECODE_TUPLESET_SPEED
GECODE_TUPLESET_SPEED
GECODE_TUPLESET_SPEED
GECODE_TUPLESET_SPEED
GECODE_TUPLESET_SPEED
GECODE_TUPLESET_SPEED
GECODE_TUPLESET_SPEED
GECODE_TUPLESET_SPEED
GECODE_TUPLESET_SPEED
GECODE_TUPLESET_SPEED
GECODE_TUPLESET_SPEED
GECODE_TUPLESET_SPEED
GECODE_TUPLESET_SPEED
GECODE_TUPLESET_SPEED
GECODE_TUPLESET_SPEED
GECODE_TUPLESET_SPEED
GECODE_TUPLESET_SPEED
GECODE_TUPLESET_SPEED
GECODE_TUPLESET_SPEED
GECODE_TUPLESET_SPEED
GECODE_TUPLESET_SPEED
GECODE_TUPLESET_SPEED
GECODE_TUPLESET_SPEED
GECODE_TUPLESET_SPEED
GECODE_TUPLESET_SPEED
GECODE_TUPLESET_SPEED
GECODE_TUPLESET_SPEED
GECODE_TUPLESET_SPEED
GECODE_TUPLESET_SPEED
GECODE_TUPLESET_SPEED
GECODE_TUPLESET_SPEED
GECODE_TUPLESET_SPEED
GECODE_TUPLESET_SPEED
GECODE_TUPLESET_SPEED
GECODE_TUPLESET_SPEED
GECODE_TUPLESET_SPEED
GECODE_TUPLESET_SPEED
GECODE_TUPLESET_SPEED
GECODE_TUPLESET_SPEED
GECODE_TUPLESET_SPEED
GECODE_TUPLESET_SPEED
GECODE_TUPLESET_SPEED
GECODE_TUPLESET_SPEED
GECODE_TUPLESET_SPEED
GECODE_TUPLESET_SPEED
GECODE_TUPLESET_SPEED
GECODE_TUPLESET_SPEED
GECODE_TUPLESET_SPEED
GECODE_TUPLESET_SPEED
GECODE_TUPLESET_SPEED
GECODE_TUPLESET_SPEED
GECODE_TUPLESET_SPEED
GECODE_TUPLESET_SPEED
GECODE_TUPLESET_SPEED
GECODE_TUPLESET_SPEED
GECODE_TUPLESET_SPEED
GECODE_TUPLESET_SPEED
GECODE_TUPLESET_SPEED
GECODE_TUPLESET_SPEED
GECODE_TUPLESET_SPEED
GECODE_TUPLESET_SPEED
GECODE_TUPLESET_SPEED
GECODE_TUPLESET_SPEED
GECODE_TUPLESET_SPEED
GECODE_TUPLESET_SPEED
GECODE_TUPLESET_SPEED
GECODE_TUPLESET_SPEED
GECODE_TUPLESET_SPEED
GECODE_TUPLESET_SPEED
GECODE_TUPLESET_SPEED
GECODE_TUPLESET_SPEED
GECODE_TUPLESET_SPEED
GECODE_TUPLESET_SPEED
GECODE_TUPLESET_SPEED
GECODE_TUPLESET_SPEED
GECODE_TUPLESET_SPEED
GECODE_TUPLESET_SPEED
GECODE_TUPLESET_SPEED
GECODE_TUPLESET_SPEED
GECODE_TUPLESET_SPEED
GECODE_TUPLESET_SPEED
GECODE_TUPLESET_SPEED
GECODE_TUPLESET_SPEED
GECODE_TUPLESET_SPEED
GECODE_TUPLESET_SPEED
GECODE_TUPLESET_SPEED
GECODE_TUPLESET_SPEED
GECODE_TUPLESET_SPEED
GECODE_TUPLESET_SPEED
GECODE_TUPLESET_SPEED
GECODE_TUPLESET_SPEED
GECODE_TUPLESET_SPEED
GECODE_TUPLESET_SPEED
GECODE_TUPLESET_SPEED
GECODE_TUPLESET_SPEED
GECODE_TUPLESET_SPEED
GECODE_TUPLESET_SPEED
GECODE_TUPLESET_SPEED
L = array1d(0..368, [1, 19, 1, 1, 2, 20, 1, 13, 18, 1, 7, 1, 18, 2, 15, 14, 5, 19, 20, 15, 14, 3, 5, 1, 8, 5, 1, 4, 21, 18, 9, 1, 8, 9, 19, 12, 5, 3, 15, 3, 8, 1, 2, 1, 13, 2, 1, 12, 1, 14, 4, 13, 1, 19, 19, 5, 19, 11, 14, 5, 1, 4, 2, 15, 2, 13, 1, 18, 7, 5, 19, 5, 5, 4, 19, 19, 14, 1, 7, 9, 12, 12, 5, 7, 1, 12, 19, 8, 9, 14, 1, 4, 19, 18, 5, 20, 18, 5, 1, 4, 20, 5, 16, 5, 5, 20, 1, 14, 18, 1, 9, 4, 8, 1, 19, 18, 1, 7, 20, 1, 7, 6, 9, 18, 5, 15, 18, 2, 9, 20, 5, 4, 15, 7, 12, 5, 4, 16, 18, 5, 12, 1, 20, 5, 13, 3, 12, 5, 1, 14, 6, 9, 5, 14, 1, 13, 5, 25, 5, 12, 9, 4, 1, 25, 5, 7, 14, 1, 18, 12, 19, 1, 2, 2, 25, 5, 1, 19, 5, 19, 11, 1, 1, 2, 1, 9, 1, 13, 2, 19, 13, 15, 4, 1, 12, 5, 9, 18, 5, 13, 5, 14, 11, 1, 18, 8, 5, 16, 9, 3, 5, 2, 15, 24, 12, 1, 7, 1, 12, 9, 14, 15, 13, 1, 4, 19, 4, 5, 12, 21, 7, 5, 4, 13, 15, 20, 9, 6, 15, 14, 23, 1, 18, 4, 19, 7, 1, 5, 12, 14, 1, 2, 19, 1, 13, 1, 3, 5, 5, 4, 9, 20, 5, 14, 7, 20, 9, 4, 1, 12, 13, 1, 5, 19, 20, 18, 9, 8, 5, 19, 1, 18, 5, 1, 12, 1, 13, 5, 14, 20, 19, 19, 1, 7, 5, 6, 1, 20, 1, 12, 5, 1, 20, 5, 18, 3, 8, 5, 7, 12, 1, 4, 5, 5, 16, 9, 7, 12, 15, 20, 20, 9, 19, 18, 8, 15, 13, 2, 15, 9, 4, 5, 19, 4, 9, 14, 1, 1, 14, 15, 14, 19, 3, 5, 12, 9, 1, 4, 5, 5, 16, 19, 1, 7, 19, 20, 1, 14, 19, 25, 1, 4, 5, 12, 1, 5, 4, 4, 25]);
----------

%%  runtime:       3.009 (3009.187 ms)
%%  solvetime:     1.303 (1303.044 ms)
%%  solutions:     1
%%  variables:     40454
%%  propagators:   51713
%%  propagations:  1928135
%%  nodes:         534
%%  failures:      197
%%  restarts:      0
%%  peak depth:    164

COMPACT_TABLE
COMPACT_TABLE
COMPACT_TABLE
COMPACT_TABLE
COMPACT_TABLE
COMPACT_TABLE
COMPACT_TABLE
COMPACT_TABLE
COMPACT_TABLE
COMPACT_TABLE
COMPACT_TABLE
COMPACT_TABLE
COMPACT_TABLE
COMPACT_TABLE
COMPACT_TABLE
COMPACT_TABLE
COMPACT_TABLE
COMPACT_TABLE
COMPACT_TABLE
COMPACT_TABLE
COMPACT_TABLE
COMPACT_TABLE
COMPACT_TABLE
COMPACT_TABLE
COMPACT_TABLE
COMPACT_TABLE
COMPACT_TABLE
COMPACT_TABLE
COMPACT_TABLE
COMPACT_TABLE
COMPACT_TABLE
COMPACT_TABLE
COMPACT_TABLE
COMPACT_TABLE
COMPACT_TABLE
COMPACT_TABLE
COMPACT_TABLE
COMPACT_TABLE
COMPACT_TABLE
COMPACT_TABLE
COMPACT_TABLE
COMPACT_TABLE
COMPACT_TABLE
COMPACT_TABLE
COMPACT_TABLE
COMPACT_TABLE
COMPACT_TABLE
COMPACT_TABLE
COMPACT_TABLE
COMPACT_TABLE
COMPACT_TABLE
COMPACT_TABLE
COMPACT_TABLE
COMPACT_TABLE
COMPACT_TABLE
COMPACT_TABLE
COMPACT_TABLE
COMPACT_TABLE
COMPACT_TABLE
COMPACT_TABLE
COMPACT_TABLE
COMPACT_TABLE
COMPACT_TABLE
COMPACT_TABLE
COMPACT_TABLE
COMPACT_TABLE
COMPACT_TABLE
COMPACT_TABLE
COMPACT_TABLE
COMPACT_TABLE
COMPACT_TABLE
COMPACT_TABLE
COMPACT_TABLE
COMPACT_TABLE
COMPACT_TABLE
COMPACT_TABLE
COMPACT_TABLE
COMPACT_TABLE
COMPACT_TABLE
COMPACT_TABLE
COMPACT_TABLE
COMPACT_TABLE
COMPACT_TABLE
COMPACT_TABLE
COMPACT_TABLE
COMPACT_TABLE
COMPACT_TABLE
COMPACT_TABLE
COMPACT_TABLE
COMPACT_TABLE
COMPACT_TABLE
COMPACT_TABLE
COMPACT_TABLE
COMPACT_TABLE
COMPACT_TABLE
COMPACT_TABLE
COMPACT_TABLE
COMPACT_TABLE
COMPACT_TABLE
COMPACT_TABLE
COMPACT_TABLE
COMPACT_TABLE
COMPACT_TABLE
COMPACT_TABLE
COMPACT_TABLE
COMPACT_TABLE
COMPACT_TABLE
COMPACT_TABLE
COMPACT_TABLE
COMPACT_TABLE
COMPACT_TABLE
COMPACT_TABLE
COMPACT_TABLE
COMPACT_TABLE
COMPACT_TABLE
COMPACT_TABLE
COMPACT_TABLE
COMPACT_TABLE
COMPACT_TABLE
COMPACT_TABLE
COMPACT_TABLE
COMPACT_TABLE
COMPACT_TABLE
COMPACT_TABLE
COMPACT_TABLE
COMPACT_TABLE
COMPACT_TABLE
COMPACT_TABLE
COMPACT_TABLE
COMPACT_TABLE
COMPACT_TABLE
COMPACT_TABLE
COMPACT_TABLE
COMPACT_TABLE
COMPACT_TABLE
COMPACT_TABLE
COMPACT_TABLE
COMPACT_TABLE
COMPACT_TABLE
COMPACT_TABLE
COMPACT_TABLE
COMPACT_TABLE
COMPACT_TABLE
COMPACT_TABLE
COMPACT_TABLE
COMPACT_TABLE
COMPACT_TABLE
COMPACT_TABLE
COMPACT_TABLE
COMPACT_TABLE
COMPACT_TABLE
COMPACT_TABLE
L = array1d(0..368, [1, 19, 1, 1, 2, 20, 1, 13, 18, 1, 7, 1, 18, 2, 15, 14, 5, 19, 20, 15, 14, 3, 5, 1, 8, 5, 1, 4, 21, 18, 9, 1, 8, 9, 19, 12, 5, 3, 15, 3, 8, 1, 2, 1, 13, 2, 1, 12, 1, 14, 4, 13, 1, 19, 19, 5, 19, 11, 14, 5, 1, 4, 2, 15, 2, 13, 1, 18, 7, 5, 19, 5, 5, 4, 19, 19, 14, 1, 7, 9, 12, 12, 5, 7, 1, 12, 19, 8, 9, 14, 1, 4, 19, 18, 5, 20, 18, 5, 1, 4, 20, 5, 16, 5, 5, 20, 1, 14, 18, 1, 9, 4, 8, 1, 19, 18, 1, 7, 20, 1, 7, 6, 9, 18, 5, 15, 18, 2, 9, 20, 5, 4, 15, 7, 12, 5, 4, 16, 18, 5, 12, 1, 20, 5, 13, 3, 12, 5, 1, 14, 6, 9, 5, 14, 1, 13, 5, 25, 5, 12, 9, 4, 1, 25, 5, 7, 14, 1, 18, 12, 19, 1, 2, 2, 25, 5, 1, 19, 5, 19, 11, 1, 1, 2, 1, 9, 1, 13, 2, 19, 13, 15, 4, 1, 12, 5, 9, 18, 5, 13, 5, 14, 11, 1, 18, 8, 5, 16, 9, 3, 5, 2, 15, 24, 12, 1, 7, 1, 12, 9, 14, 15, 13, 1, 4, 19, 4, 5, 12, 21, 7, 5, 4, 13, 15, 20, 9, 6, 15, 14, 23, 1, 18, 4, 19, 7, 1, 5, 12, 14, 1, 2, 19, 1, 13, 1, 3, 5, 5, 4, 9, 20, 5, 14, 7, 20, 9, 4, 1, 12, 13, 1, 5, 19, 20, 18, 9, 8, 5, 19, 1, 18, 5, 1, 12, 1, 13, 5, 14, 20, 19, 19, 1, 7, 5, 6, 1, 20, 1, 12, 5, 1, 20, 5, 18, 3, 8, 5, 7, 12, 1, 4, 5, 5, 16, 9, 7, 12, 15, 20, 20, 9, 19, 18, 8, 15, 13, 2, 15, 9, 4, 5, 19, 4, 9, 14, 1, 1, 14, 15, 14, 19, 3, 5, 12, 9, 1, 4, 5, 5, 16, 19, 1, 7, 19, 20, 1, 14, 19, 25, 1, 4, 5, 12, 1, 5, 4, 4, 25]);
----------

%%  runtime:       3.118 (3118.506 ms)
%%  solvetime:     0.761 (761.053 ms)
%%  solutions:     1
%%  variables:     40454
%%  propagators:   51713
%%  propagations:  1957486
%%  nodes:         534
%%  failures:      197
%%  restarts:      0
%%  peak depth:    164

